c File: data_files/evolved_graphs/g0326.col
c
c Auto generated graph
c
p edge 100 1367
e 1 5
e 1 7
e 1 8
e 1 18
e 1 19
e 1 21
e 1 24
e 1 27
e 1 42
e 1 46
e 1 65
e 1 66
e 1 67
e 1 68
e 1 73
e 1 74
e 1 75
e 1 78
e 1 80
e 1 81
e 1 86
e 1 89
e 1 91
e 1 93
e 1 94
e 1 96
e 1 97
e 1 98
e 1 99
e 2 9
e 2 11
e 2 18
e 2 62
e 2 63
e 2 65
e 2 68
e 2 69
e 2 71
e 2 72
e 2 74
e 2 75
e 2 77
e 2 79
e 2 81
e 2 83
e 2 85
e 2 92
e 2 94
e 2 96
e 2 97
e 2 99
e 2 100
e 3 9
e 3 16
e 3 23
e 3 31
e 3 44
e 3 62
e 3 63
e 3 65
e 3 67
e 3 70
e 3 78
e 3 79
e 3 82
e 3 83
e 3 91
e 3 94
e 3 95
e 3 96
e 3 98
e 3 99
e 3 100
e 4 5
e 4 7
e 4 9
e 4 15
e 4 20
e 4 25
e 4 33
e 4 38
e 4 66
e 4 67
e 4 69
e 4 70
e 4 78
e 4 79
e 4 84
e 4 95
e 4 96
e 4 97
e 4 98
e 4 99
e 5 9
e 5 11
e 5 13
e 5 15
e 5 22
e 5 27
e 5 29
e 5 48
e 5 55
e 5 60
e 5 64
e 5 65
e 5 66
e 5 68
e 5 73
e 5 75
e 5 77
e 5 78
e 5 82
e 5 83
e 5 91
e 5 93
e 5 94
e 5 96
e 5 97
e 6 8
e 6 9
e 6 11
e 6 15
e 6 19
e 6 22
e 6 25
e 6 40
e 6 57
e 6 61
e 6 64
e 6 67
e 6 68
e 6 72
e 6 73
e 6 75
e 6 76
e 6 77
e 6 80
e 6 81
e 6 82
e 6 83
e 6 91
e 6 92
e 6 93
e 6 94
e 6 96
e 6 97
e 6 100
e 7 10
e 7 14
e 7 18
e 7 24
e 7 26
e 7 28
e 7 41
e 7 60
e 7 64
e 7 66
e 7 72
e 7 74
e 7 75
e 7 76
e 7 77
e 7 79
e 7 81
e 7 83
e 7 90
e 7 91
e 7 92
e 7 95
e 7 100
e 8 9
e 8 14
e 8 20
e 8 22
e 8 28
e 8 31
e 8 32
e 8 33
e 8 34
e 8 63
e 8 64
e 8 66
e 8 67
e 8 68
e 8 69
e 8 70
e 8 71
e 8 74
e 8 75
e 8 78
e 8 82
e 8 83
e 8 84
e 8 88
e 8 91
e 8 92
e 8 93
e 8 97
e 8 98
e 8 99
e 8 100
e 9 12
e 9 13
e 9 38
e 9 45
e 9 63
e 9 65
e 9 68
e 9 69
e 9 73
e 9 74
e 9 76
e 9 77
e 9 81
e 9 82
e 9 87
e 9 88
e 9 93
e 9 98
e 9 100
e 10 12
e 10 13
e 10 19
e 10 24
e 10 35
e 10 47
e 10 52
e 10 54
e 10 65
e 10 66
e 10 67
e 10 69
e 10 70
e 10 73
e 10 74
e 10 78
e 10 79
e 10 82
e 10 83
e 10 87
e 10 91
e 10 93
e 10 94
e 10 98
e 10 99
e 10 100
e 11 20
e 11 35
e 11 62
e 11 64
e 11 66
e 11 67
e 11 70
e 11 72
e 11 77
e 11 78
e 11 79
e 11 81
e 11 82
e 11 91
e 11 93
e 11 94
e 11 97
e 11 98
e 12 15
e 12 17
e 12 18
e 12 24
e 12 28
e 12 51
e 12 52
e 12 62
e 12 66
e 12 70
e 12 72
e 12 73
e 12 76
e 12 82
e 12 83
e 12 89
e 12 92
e 12 94
e 12 95
e 12 96
e 12 98
e 12 99
e 12 100
e 13 15
e 13 33
e 13 36
e 13 43
e 13 44
e 13 45
e 13 48
e 13 61
e 13 64
e 13 68
e 13 70
e 13 71
e 13 78
e 13 80
e 13 81
e 13 82
e 13 94
e 13 95
e 13 96
e 13 97
e 13 99
e 13 100
e 14 16
e 14 29
e 14 31
e 14 32
e 14 37
e 14 38
e 14 54
e 14 68
e 14 72
e 14 74
e 14 75
e 14 76
e 14 82
e 14 83
e 14 91
e 14 92
e 14 93
e 14 95
e 14 98
e 14 100
e 15 19
e 15 27
e 15 32
e 15 33
e 15 37
e 15 53
e 15 54
e 15 67
e 15 68
e 15 75
e 15 76
e 15 81
e 15 83
e 15 91
e 15 92
e 15 93
e 15 95
e 15 96
e 15 97
e 15 100
e 16 17
e 16 19
e 16 29
e 16 34
e 16 38
e 16 62
e 16 63
e 16 66
e 16 67
e 16 69
e 16 70
e 16 71
e 16 74
e 16 75
e 16 77
e 16 78
e 16 80
e 16 81
e 16 83
e 16 90
e 16 91
e 16 92
e 16 93
e 16 95
e 16 97
e 17 18
e 17 25
e 17 26
e 17 40
e 17 53
e 17 63
e 17 65
e 17 66
e 17 67
e 17 68
e 17 69
e 17 70
e 17 72
e 17 73
e 17 76
e 17 77
e 17 80
e 17 82
e 17 83
e 17 87
e 17 91
e 17 92
e 17 93
e 17 96
e 17 99
e 17 100
e 18 30
e 18 39
e 18 48
e 18 50
e 18 56
e 18 58
e 18 66
e 18 70
e 18 73
e 18 74
e 18 76
e 18 79
e 18 80
e 18 82
e 18 89
e 18 91
e 18 92
e 18 96
e 18 99
e 19 20
e 19 25
e 19 42
e 19 43
e 19 63
e 19 65
e 19 67
e 19 68
e 19 70
e 19 71
e 19 73
e 19 75
e 19 79
e 19 80
e 19 81
e 19 82
e 19 87
e 19 92
e 19 93
e 19 94
e 19 95
e 19 98
e 19 99
e 19 100
e 20 21
e 20 31
e 20 44
e 20 58
e 20 63
e 20 64
e 20 65
e 20 66
e 20 68
e 20 69
e 20 70
e 20 72
e 20 73
e 20 75
e 20 77
e 20 82
e 20 83
e 20 91
e 20 92
e 20 93
e 20 94
e 20 95
e 20 96
e 20 98
e 20 99
e 20 100
e 21 22
e 21 24
e 21 26
e 21 27
e 21 31
e 21 34
e 21 41
e 21 44
e 21 48
e 21 57
e 21 62
e 21 67
e 21 68
e 21 70
e 21 71
e 21 73
e 21 74
e 21 75
e 21 76
e 21 78
e 21 81
e 21 83
e 21 92
e 21 93
e 21 94
e 21 97
e 21 98
e 21 99
e 21 100
e 22 24
e 22 26
e 22 28
e 22 32
e 22 34
e 22 63
e 22 65
e 22 67
e 22 68
e 22 69
e 22 70
e 22 71
e 22 73
e 22 76
e 22 77
e 22 79
e 22 81
e 22 83
e 22 88
e 22 90
e 22 95
e 22 96
e 22 98
e 22 99
e 22 100
e 23 28
e 23 38
e 23 58
e 23 64
e 23 66
e 23 67
e 23 69
e 23 70
e 23 72
e 23 73
e 23 76
e 23 80
e 23 91
e 23 92
e 23 94
e 23 97
e 23 98
e 23 99
e 23 100
e 24 28
e 24 56
e 24 63
e 24 64
e 24 67
e 24 69
e 24 70
e 24 73
e 24 76
e 24 77
e 24 80
e 24 83
e 24 91
e 24 93
e 24 94
e 24 95
e 24 96
e 24 97
e 24 99
e 25 34
e 25 50
e 25 51
e 25 61
e 25 62
e 25 64
e 25 65
e 25 70
e 25 71
e 25 73
e 25 77
e 25 81
e 25 93
e 25 94
e 25 95
e 25 97
e 25 99
e 25 100
e 26 33
e 26 34
e 26 41
e 26 55
e 26 58
e 26 62
e 26 64
e 26 65
e 26 66
e 26 68
e 26 69
e 26 75
e 26 77
e 26 79
e 26 80
e 26 82
e 26 91
e 26 92
e 26 93
e 26 96
e 26 99
e 27 28
e 27 34
e 27 35
e 27 38
e 27 40
e 27 44
e 27 53
e 27 60
e 27 62
e 27 63
e 27 66
e 27 72
e 27 74
e 27 75
e 27 76
e 27 77
e 27 79
e 27 80
e 27 81
e 27 82
e 27 83
e 27 85
e 27 91
e 27 92
e 27 94
e 27 96
e 27 98
e 27 99
e 28 31
e 28 40
e 28 44
e 28 48
e 28 61
e 28 63
e 28 65
e 28 67
e 28 68
e 28 69
e 28 70
e 28 74
e 28 75
e 28 81
e 28 82
e 28 83
e 28 92
e 28 96
e 28 99
e 29 31
e 29 33
e 29 34
e 29 40
e 29 52
e 29 56
e 29 61
e 29 69
e 29 70
e 29 71
e 29 73
e 29 74
e 29 76
e 29 78
e 29 79
e 29 87
e 29 91
e 29 93
e 29 94
e 29 95
e 29 97
e 29 98
e 29 99
e 29 100
e 30 31
e 30 34
e 30 48
e 30 50
e 30 54
e 30 62
e 30 64
e 30 65
e 30 66
e 30 69
e 30 73
e 30 74
e 30 75
e 30 80
e 30 82
e 30 91
e 30 92
e 30 93
e 30 94
e 30 95
e 31 32
e 31 35
e 31 36
e 31 38
e 31 49
e 31 52
e 31 65
e 31 68
e 31 69
e 31 71
e 31 72
e 31 74
e 31 79
e 31 80
e 31 83
e 31 91
e 31 93
e 31 94
e 31 95
e 31 96
e 31 97
e 31 98
e 32 58
e 32 62
e 32 63
e 32 64
e 32 66
e 32 68
e 32 71
e 32 72
e 32 75
e 32 77
e 32 80
e 32 81
e 32 82
e 32 90
e 32 91
e 32 92
e 32 93
e 32 94
e 32 95
e 32 96
e 32 97
e 32 100
e 33 39
e 33 46
e 33 47
e 33 66
e 33 68
e 33 69
e 33 72
e 33 73
e 33 74
e 33 81
e 33 84
e 33 92
e 33 94
e 33 95
e 33 97
e 33 100
e 34 37
e 34 61
e 34 69
e 34 71
e 34 75
e 34 76
e 34 78
e 34 79
e 34 91
e 34 92
e 34 94
e 34 95
e 34 96
e 34 97
e 34 98
e 35 37
e 35 40
e 35 41
e 35 46
e 35 51
e 35 54
e 35 59
e 35 66
e 35 69
e 35 80
e 35 91
e 35 92
e 35 93
e 35 95
e 35 99
e 35 100
e 36 37
e 36 38
e 36 46
e 36 50
e 36 52
e 36 62
e 36 64
e 36 78
e 36 92
e 36 93
e 36 95
e 36 96
e 36 97
e 36 98
e 37 51
e 37 61
e 37 64
e 37 90
e 37 96
e 37 97
e 38 40
e 38 50
e 38 55
e 38 56
e 38 62
e 38 64
e 38 66
e 38 70
e 38 74
e 38 79
e 38 81
e 38 92
e 38 93
e 38 94
e 38 95
e 38 98
e 38 99
e 39 48
e 39 66
e 39 77
e 39 80
e 39 91
e 39 92
e 39 93
e 39 94
e 39 96
e 39 97
e 40 43
e 40 45
e 40 46
e 40 60
e 40 62
e 40 65
e 40 78
e 40 86
e 40 91
e 40 92
e 40 94
e 40 95
e 40 96
e 40 98
e 41 43
e 41 44
e 41 51
e 41 52
e 41 65
e 41 76
e 41 91
e 41 92
e 41 95
e 41 97
e 41 98
e 41 100
e 42 46
e 42 48
e 42 56
e 42 62
e 42 72
e 42 74
e 42 79
e 42 81
e 42 83
e 42 84
e 42 87
e 42 95
e 42 96
e 42 97
e 42 98
e 42 99
e 42 100
e 43 46
e 43 49
e 43 50
e 43 71
e 43 72
e 43 74
e 43 78
e 43 82
e 43 83
e 43 91
e 43 92
e 43 96
e 43 98
e 43 99
e 43 100
e 44 48
e 44 50
e 44 52
e 44 56
e 44 67
e 44 78
e 44 87
e 44 88
e 44 91
e 44 93
e 44 95
e 44 99
e 44 100
e 45 46
e 45 52
e 45 56
e 45 58
e 45 67
e 45 78
e 45 79
e 45 82
e 45 85
e 45 91
e 45 94
e 45 95
e 45 96
e 45 97
e 45 98
e 46 50
e 46 51
e 46 54
e 46 64
e 46 66
e 46 68
e 46 73
e 46 75
e 46 77
e 46 80
e 46 92
e 46 93
e 46 94
e 46 95
e 46 100
e 47 53
e 47 65
e 47 78
e 47 80
e 47 83
e 47 90
e 47 92
e 47 93
e 47 94
e 47 100
e 48 52
e 48 57
e 48 64
e 48 69
e 48 75
e 48 78
e 48 79
e 48 83
e 48 93
e 48 95
e 48 96
e 48 100
e 49 51
e 49 53
e 49 56
e 49 61
e 49 63
e 49 68
e 49 69
e 49 70
e 49 72
e 49 76
e 49 79
e 49 84
e 49 85
e 49 86
e 49 87
e 49 88
e 49 89
e 49 92
e 50 56
e 50 67
e 50 68
e 50 72
e 50 77
e 50 87
e 50 88
e 50 90
e 50 93
e 50 95
e 51 64
e 51 65
e 51 66
e 51 74
e 51 77
e 51 81
e 51 86
e 51 89
e 51 91
e 51 98
e 51 100
e 52 60
e 52 71
e 52 79
e 52 83
e 52 89
e 53 56
e 53 58
e 53 60
e 53 67
e 53 72
e 53 74
e 53 75
e 53 77
e 53 86
e 53 89
e 53 94
e 53 100
e 54 56
e 54 60
e 54 62
e 54 64
e 54 66
e 54 70
e 54 80
e 54 91
e 54 92
e 54 94
e 55 57
e 55 63
e 55 68
e 55 82
e 55 83
e 55 87
e 55 95
e 56 58
e 56 60
e 56 62
e 56 64
e 56 69
e 56 78
e 56 88
e 56 89
e 56 95
e 56 99
e 57 62
e 57 66
e 57 68
e 57 74
e 57 77
e 57 80
e 57 81
e 57 82
e 57 84
e 57 88
e 57 95
e 57 98
e 58 59
e 58 66
e 58 81
e 58 85
e 58 91
e 58 94
e 58 97
e 58 98
e 59 65
e 59 76
e 59 78
e 59 81
e 59 82
e 59 85
e 59 91
e 59 94
e 59 95
e 59 96
e 59 98
e 59 100
e 60 63
e 60 70
e 60 73
e 60 77
e 60 78
e 60 79
e 60 83
e 60 87
e 60 92
e 60 95
e 60 96
e 60 97
e 60 98
e 60 99
e 61 73
e 61 79
e 61 80
e 61 81
e 61 87
e 61 88
e 61 90
e 61 92
e 61 97
e 61 100
e 62 66
e 62 68
e 62 92
e 62 95
e 62 98
e 62 99
e 63 65
e 63 71
e 63 72
e 63 73
e 63 75
e 63 81
e 63 87
e 63 88
e 63 89
e 63 94
e 63 100
e 64 65
e 64 70
e 64 72
e 64 75
e 64 81
e 64 83
e 64 90
e 64 92
e 65 67
e 65 74
e 65 76
e 65 82
e 65 83
e 65 95
e 65 97
e 66 75
e 66 77
e 66 80
e 66 84
e 66 89
e 66 90
e 66 92
e 66 93
e 66 95
e 66 99
e 67 69
e 67 71
e 67 72
e 67 77
e 67 88
e 67 92
e 67 100
e 68 69
e 68 74
e 68 82
e 68 83
e 68 85
e 68 88
e 68 90
e 68 92
e 68 94
e 68 96
e 68 98
e 68 100
e 69 71
e 69 76
e 69 78
e 69 81
e 69 100
e 70 72
e 70 79
e 70 81
e 70 87
e 70 88
e 70 93
e 70 94
e 70 97
e 70 100
e 71 72
e 71 78
e 71 85
e 71 86
e 71 91
e 72 73
e 72 76
e 72 79
e 72 94
e 73 75
e 73 80
e 73 85
e 73 86
e 73 89
e 73 90
e 73 91
e 73 93
e 73 97
e 74 75
e 74 76
e 74 77
e 74 80
e 74 82
e 74 93
e 74 94
e 74 95
e 74 96
e 74 97
e 74 98
e 74 99
e 74 100
e 75 77
e 75 90
e 75 91
e 75 92
e 75 93
e 75 94
e 75 95
e 75 96
e 75 97
e 75 98
e 75 99
e 75 100
e 76 80
e 76 83
e 76 91
e 76 92
e 76 93
e 76 94
e 76 95
e 76 96
e 76 97
e 76 98
e 76 99
e 76 100
e 77 80
e 77 84
e 77 91
e 77 92
e 77 93
e 77 94
e 77 95
e 77 96
e 77 97
e 77 98
e 77 99
e 77 100
e 78 80
e 78 83
e 78 84
e 78 85
e 78 88
e 78 91
e 78 92
e 78 93
e 78 94
e 78 95
e 78 96
e 78 97
e 78 98
e 78 99
e 78 100
e 79 86
e 79 87
e 79 91
e 79 92
e 79 93
e 79 94
e 79 95
e 79 96
e 79 97
e 79 98
e 79 99
e 79 100
e 80 81
e 80 85
e 80 86
e 80 87
e 80 89
e 80 91
e 80 92
e 80 93
e 80 94
e 80 95
e 80 96
e 80 97
e 80 98
e 80 99
e 80 100
e 81 82
e 81 93
e 81 94
e 81 95
e 81 96
e 81 97
e 81 98
e 81 99
e 81 100
e 82 85
e 82 93
e 82 94
e 82 95
e 82 96
e 82 97
e 82 98
e 82 99
e 82 100
e 83 84
e 83 88
e 83 93
e 83 94
e 83 95
e 83 96
e 83 97
e 83 98
e 83 99
e 83 100
e 84 85
e 84 93
e 84 94
e 84 95
e 84 96
e 84 97
e 84 98
e 84 99
e 84 100
e 85 89
e 85 93
e 85 95
e 85 96
e 85 97
e 85 98
e 85 99
e 85 100
e 86 94
e 86 100
e 87 90
e 87 93
e 87 94
e 87 95
e 87 96
e 87 97
e 87 98
e 87 99
e 87 100
e 88 96
e 88 97
e 88 99
e 88 100
e 89 92
e 89 93
e 89 94
e 89 95
e 89 96
e 89 97
e 89 98
e 89 99
e 89 100
e 90 92
e 90 93
e 90 95
e 90 96
e 90 97
e 90 98
e 90 99
e 90 100
e 91 93
e 91 97
e 91 99
e 92 96
e 92 99
e 92 100
e 93 96
e 93 97
e 93 100
e 94 96
e 94 99
e 95 99
e 95 100
e 97 100
e 98 99
